words_hard_train/2160.qaiger
aag 134 24 0 1 110
2
4
12
14
18
20
26
34
40
46
58
70
86
104
122
138
154
176
188
200
212
222
232
260
268
6 2 5
8 3 4
10 7 9
16 12 14
22 19 21
24 23 14
28 25 27
30 29 14
32 17 31
36 34 14
38 32 37
42 38 41
44 43 14
48 45 47
50 48 14
52 11 50
54 10 51
56 53 55
60 18 59
62 18 14
64 62 21
66 63 20
68 65 67
72 68 70
74 69 71
76 73 75
78 60 76
80 79 75
82 24 26
84 83 29
88 85 86
90 84 87
92 89 91
94 81 92
96 95 91
98 31 13
100 30 12
102 99 101
106 103 104
108 102 105
110 107 109
112 97 110
114 113 109
116 33 34
118 32 35
120 117 119
124 121 122
126 120 123
128 125 127
130 115 128
132 131 127
134 39 40
136 135 43
140 137 138
142 136 139
144 141 143
146 133 144
148 147 143
150 44 46
152 151 49
156 153 154
158 152 155
160 157 159
162 149 160
164 163 159
166 56 164
168 57 165
170 167 169
172 132 145
174 173 147
178 174 177
180 175 176
182 179 181
184 114 129
186 185 131
190 186 189
192 187 188
194 191 193
196 61 77
198 197 79
202 199 201
204 198 200
206 203 205
208 80 93
210 209 95
214 210 213
216 207 215
218 96 111
220 219 113
224 221 222
226 216 225
228 19 58
230 229 61
234 230 233
236 231 232
238 235 237
240 211 212
242 238 241
244 220 223
246 242 245
248 226 246
250 194 248
252 182 250
254 171 252
256 148 161
258 257 163
262 259 261
264 258 260
266 263 265
268 254 267
i0 1 x2[7]
i1 2 y1[7]
i2 1 x1[3]
i3 1 x1[7]
i4 1 x1[0]
i5 1 x1[1]
i6 1 x1[2]
i7 1 x1[4]
i8 1 x1[5]
i9 1 x1[6]
i10 2 y1[0]
i11 2 y1[1]
i12 2 y1[2]
i13 2 y1[3]
i14 2 y1[4]
i15 2 y1[5]
i16 2 y1[6]
i17 1 x2[5]
i18 1 x2[4]
i19 1 x2[1]
i20 1 x2[2]
i21 1 x2[3]
i22 1 x2[0]
i23 1 x2[6]
o0 bool[0]
c
simplified
  ==
    subtract
      abs
        1 x1
      add
        2 y1
        1
    1 x2
