words_hard_train/2160.qaiger.qdimacs
p cnf 134 331
a 1 130 100 6 7 9 10 106 13 111 17 20 116 23 88 94 0
e 2 3 4 5 8 11 12 14 15 16 18 19 21 22 24 25 26 27 28 29 30 31 32 33 34 35 36 37 38 39 40 41 42 43 44 45 46 47 48 49 50 51 52 53 54 55 56 57 58 59 60 61 62 63 64 65 66 67 68 69 70 71 72 73 74 75 76 77 78 79 80 81 82 83 84 85 86 87 89 90 91 92 93 95 96 97 98 99 101 102 103 104 105 107 108 109 110 112 113 114 115 117 118 119 120 121 122 123 124 125 126 127 128 129 131 132 133 134 0
-1 2 3 0
1 -3 0
-2 -3 0
1 -2 4 0
-1 -4 0
2 -4 0
3 4 5 0
-3 -5 0
-4 -5 0
-6 -7 8 0
6 -8 0
7 -8 0
9 10 11 0
-9 -11 0
-10 -11 0
11 -7 12 0
-11 -12 0
7 -12 0
12 13 14 0
-12 -14 0
-13 -14 0
14 -7 15 0
-14 -15 0
7 -15 0
8 15 16 0
-8 -16 0
-15 -16 0
-17 -7 18 0
17 -18 0
7 -18 0
-16 18 19 0
16 -19 0
-18 -19 0
-19 20 21 0
19 -21 0
-20 -21 0
21 -7 22 0
-21 -22 0
7 -22 0
22 23 24 0
-22 -24 0
-23 -24 0
-24 -7 25 0
24 -25 0
7 -25 0
5 -25 26 0
-5 -26 0
25 -26 0
-5 25 27 0
5 -27 0
-25 -27 0
26 27 28 0
-26 -28 0
-27 -28 0
-9 29 30 0
9 -30 0
-29 -30 0
-9 -7 31 0
9 -31 0
7 -31 0
-31 10 32 0
31 -32 0
-10 -32 0
31 -10 33 0
-31 -33 0
10 -33 0
32 33 34 0
-32 -34 0
-33 -34 0
-34 -35 36 0
34 -36 0
35 -36 0
34 35 37 0
-34 -37 0
-35 -37 0
36 37 38 0
-36 -38 0
-37 -38 0
-30 -38 39 0
30 -39 0
38 -39 0
39 37 40 0
-39 -40 0
-37 -40 0
-12 -13 41 0
12 -41 0
13 -41 0
41 14 42 0
-41 -42 0
-14 -42 0
42 -43 44 0
-42 -44 0
43 -44 0
-42 43 45 0
42 -45 0
-43 -45 0
44 45 46 0
-44 -46 0
-45 -46 0
40 -46 47 0
-40 -47 0
46 -47 0
47 45 48 0
-47 -48 0
-45 -48 0
15 6 49 0
-15 -49 0
-6 -49 0
-15 -6 50 0
15 -50 0
6 -50 0
49 50 51 0
-49 -51 0
-50 -51 0
51 -52 53 0
-51 -53 0
52 -53 0
-51 52 54 0
51 -54 0
-52 -54 0
53 54 55 0
-53 -55 0
-54 -55 0
48 -55 56 0
-48 -56 0
55 -56 0
56 54 57 0
-56 -57 0
-54 -57 0
16 -17 58 0
-16 -58 0
17 -58 0
-16 17 59 0
16 -59 0
-17 -59 0
58 59 60 0
-58 -60 0
-59 -60 0
60 -61 62 0
-60 -62 0
61 -62 0
-60 61 63 0
60 -63 0
-61 -63 0
62 63 64 0
-62 -64 0
-63 -64 0
57 -64 65 0
-57 -65 0
64 -65 0
65 63 66 0
-65 -66 0
-63 -66 0
19 -20 67 0
-19 -67 0
20 -67 0
67 21 68 0
-67 -68 0
-21 -68 0
68 -69 70 0
-68 -70 0
69 -70 0
-68 69 71 0
68 -71 0
-69 -71 0
70 71 72 0
-70 -72 0
-71 -72 0
66 -72 73 0
-66 -73 0
72 -73 0
73 71 74 0
-73 -74 0
-71 -74 0
-22 -23 75 0
22 -75 0
23 -75 0
75 24 76 0
-75 -76 0
-24 -76 0
76 -77 78 0
-76 -78 0
77 -78 0
-76 77 79 0
76 -79 0
-77 -79 0
78 79 80 0
-78 -80 0
-79 -80 0
74 -80 81 0
-74 -81 0
80 -81 0
81 79 82 0
-81 -82 0
-79 -82 0
-28 -82 83 0
28 -83 0
82 -83 0
28 82 84 0
-28 -84 0
-82 -84 0
83 84 85 0
-83 -85 0
-84 -85 0
-66 72 86 0
66 -86 0
-72 -86 0
86 73 87 0
-86 -87 0
-73 -87 0
-87 88 89 0
87 -89 0
-88 -89 0
87 -88 90 0
-87 -90 0
88 -90 0
89 90 91 0
-89 -91 0
-90 -91 0
-57 64 92 0
57 -92 0
-64 -92 0
92 65 93 0
-92 -93 0
-65 -93 0
-93 94 95 0
93 -95 0
-94 -95 0
93 -94 96 0
-93 -96 0
94 -96 0
95 96 97 0
-95 -97 0
-96 -97 0
30 38 98 0
-30 -98 0
-38 -98 0
98 39 99 0
-98 -99 0
-39 -99 0
99 100 101 0
-99 -101 0
-100 -101 0
-99 -100 102 0
99 -102 0
100 -102 0
101 102 103 0
-101 -103 0
-102 -103 0
-40 46 104 0
40 -104 0
-46 -104 0
104 47 105 0
-104 -105 0
-47 -105 0
-105 106 107 0
105 -107 0
-106 -107 0
103 107 108 0
-103 -108 0
-107 -108 0
-48 55 109 0
48 -109 0
-55 -109 0
109 56 110 0
-109 -110 0
-56 -110 0
110 -111 112 0
-110 -112 0
111 -112 0
-108 112 113 0
108 -113 0
-112 -113 0
9 -29 114 0
-9 -114 0
29 -114 0
114 30 115 0
-114 -115 0
-30 -115 0
-115 116 117 0
115 -117 0
-116 -117 0
115 -116 118 0
-115 -118 0
116 -118 0
117 118 119 0
-117 -119 0
-118 -119 0
105 -106 120 0
-105 -120 0
106 -120 0
-119 120 121 0
119 -121 0
-120 -121 0
-110 111 122 0
110 -122 0
-111 -122 0
-121 122 123 0
121 -123 0
-122 -123 0
-113 -123 124 0
113 -124 0
123 -124 0
-97 -124 125 0
97 -125 0
124 -125 0
-91 -125 126 0
91 -126 0
125 -126 0
85 -126 127 0
-85 -127 0
126 -127 0
-74 80 128 0
74 -128 0
-80 -128 0
128 81 129 0
-128 -129 0
-81 -129 0
129 130 131 0
-129 -131 0
-130 -131 0
-129 -130 132 0
129 -132 0
130 -132 0
131 132 133 0
-131 -133 0
-132 -133 0
-127 133 134 0
127 -134 0
-133 -134 0
134 0
